20
0 1 0.5 0.21
0 2 0.57 0.27
0 3 0.37 0.35
0 4 0.6 0.37
0 5 0.41 0.13
0 6 0.64 0.28
0 7 0.28 0.24
0 8 0.42 0.29
0 9 0.56 0.33
0 10 0.7 0.31
0 11 0.48 0.22
0 12 0.48 0.22
0 13 0.57 0.32
0 14 0.66 0.19
0 15 0.53 0.3
0 16 0.6 0.25
0 17 0.67 0.33
0 18 0.48 0.1
0 19 0.16 0.14
1 2 0.72 0.34
1 3 0.52 0.25
1 4 0.59 0.25
1 5 0.6 0.31
1 6 0.78 0.11
1 7 0.73 0.35
1 8 0.36 0.08
1 9 0.61 0.39
1 10 0.81 0.38
1 11 0.54 0.29
1 12 0.8 0.43
1 13 0.62 0.29
1 14 0.54 0.32
1 15 0.48 0.3
1 16 0.7 0.26
1 17 0.33 0.18
1 18 0.4 0.28
1 19 0.61 0.29
2 3 0.2 0.15
2 4 0.68 0.24
2 5 0.62 0.14
2 6 0.52 0.27
2 7 0.46 0.24
2 8 0.53 0.26
2 9 0.61 0.32
2 10 0.78 0.04
2 11 0.69 0.18
2 12 0.63 0.2
2 13 0.49 0.28
2 14 0.75 0.18
2 15 0.42 0.04
2 16 0.78 0.24
2 17 0.56 0.32
2 18 0.42 0.26
2 19 0.73 0.31
3 4 0.48 0.33
3 5 0.42 0.27
3 6 0.6 0.14
3 7 0.26 0.12
3 8 0.49 0.33
3 9 0.76 0.34
3 10 0.7 0.19
3 11 0.49 0.18
3 12 0.79 0.35
3 13 0.57 0.24
3 14 0.67 0.21
3 15 0.22 0.11
3 16 0.58 0.35
3 17 0.52 0.2
3 18 0.62 0.33
3 19 0.53 0.26
4 5 0.6 0.24
4 6 0.66 0.26
4 7 0.74 0.24
4 8 0.74 0.33
4 9 0.32 0.14
4 10 0.42 0.2
4 11 0.46 0.18
4 12 0.59 0.36
4 13 0.76 0.35
4 14 0.59 0.21
4 15 0.7 0.28
4 16 0.44 0.36
4 17 0.26 0.22
4 18 0.76 0.32
4 19 0.44 0.4
5 6 0.66 0.2
5 7 0.66 0.15
5 8 0.24 0.24
5 9 0.42 0.2
5 10 0.54 0.18
5 11 0.51 0.09
5 12 0.56 0.12
5 13 0.59 0.24
5 14 0.33 0.06
5 15 0.64 0.18
5 16 0.47 0.12
5 17 0.69 0.2
5 18 0.62 0.23
5 19 0.57 0.27
6 7 0.52 0.26
6 8 0.42 0.19
6 9 0.34 0.3
6 10 0.61 0.31
6 11 0.76 0.29
6 12 0.84 0.32
6 13 0.74 0.38
6 14 0.64 0.26
6 15 0.38 0.23
6 16 0.52 0.26
6 17 0.75 0.29
6 18 0.57 0.32
6 19 0.63 0.18
7 8 0.7 0.39
7 9 0.68 0.22
7 10 0.44 0.2
7 11 0.5 0.06
7 12 0.64 0.27
7 13 0.61 0.27
7 14 0.48 0.09
7 15 0.25 0.23
7 16 0.32 0.23
7 17 0.5 0.23
7 18 0.63 0.22
7 19 0.44 0.38
8 9 0.42 0.36
8 10 0.7 0.3
8 11 0.51 0.33
8 12 0.46 0.36
8 13 0.44 0.21
8 14 0.57 0.3
8 15 0.56 0.22
8 16 0.45 0.34
8 17 0.66 0.26
8 18 0.76 0.36
8 19 0.58 0.37
9 10 0.74 0.3
9 11 0.74 0.16
9 12 0.66 0.32
9 13 0.78 0.32
9 14 0.74 0.14
9 15 0.54 0.28
9 16 0.76 0.32
9 17 0.41 0.28
9 18 0.8 0.32
9 19 0.7 0.38
10 11 0.42 0.14
10 12 0.64 0.24
10 13 0.5 0.32
10 14 0.6 0.17
10 15 0.56 0.08
10 16 0.76 0.28
10 17 0.68 0.31
10 18 0.77 0.3
10 19 0.56 0.27
11 12 0.63 0.21
11 13 0.44 0.21
11 14 0.18 0.03
11 15 0.64 0.17
11 16 0.46 0.18
11 17 0.54 0.17
11 18 0.35 0.16
11 19 0.56 0.32
12 13 0.5 0.36
12 14 0.6 0.18
12 15 0.82 0.24
12 16 0.32 0.21
12 17 0.53 0.32
12 18 0.58 0.32
12 19 0.49 0.32
13 14 0.26 0.18
13 15 0.36 0.24
13 16 0.54 0.36
13 17 0.62 0.32
13 18 0.46 0.37
13 19 0.41 0.3
14 15 0.6 0.14
14 16 0.28 0.18
14 17 0.36 0.14
14 18 0.53 0.19
14 19 0.67 0.33
15 16 0.57 0.28
15 17 0.58 0.28
15 18 0.8 0.22
15 19 0.69 0.35
16 17 0.47 0.28
16 18 0.64 0.22
16 19 0.73 0.38
17 18 0.73 0.33
17 19 0.51 0.22
18 19 0.32 0.16
